(declare-fun b25 () (_ FloatingPoint 8 24))
(declare-fun b14 () (_ FloatingPoint 11 53))
(declare-fun b28 () (_ FloatingPoint 8 24))
(declare-fun b20 () (_ FloatingPoint 11 53))
(declare-fun b9 () (_ FloatingPoint 8 24))
(assert (let ((.def_10 (fp.mul RNE b9 b9)))
(let ((.def_11 (fp.add RNE b9 .def_10)))
(let ((.def_12 ((_ to_fp 11 53) RNE .def_11)))
(let ((.def_23 (fp.lt .def_12 b14)))
(let ((.def_19 (fp.leq b9 b25)))
(let ((.def_17 (fp.leq b28 b9)))
(let ((.def_20 (and .def_17 .def_19)))
(let ((.def_14 (fp.lt .def_12 b20)))
(let ((.def_15 (not .def_14)))
(let ((.def_21 (and .def_15 .def_20)))
(let ((.def_24 (and .def_21 .def_23)))
.def_24))))))))))))
(check-sat)
(exit)
